(set-logic QF_UF)
(declare-fun A0 () Bool)
(declare-fun A1 () Bool)
(declare-fun A2 () Bool)
(declare-fun A3 () Bool)
(declare-fun A4 () Bool)
(declare-fun A5 () Bool)
(declare-fun A6 () Bool)
(declare-fun A7 () Bool)
(declare-fun A8 () Bool)
(declare-fun A9 () Bool)
(declare-fun A10 () Bool)
(declare-fun A11 () Bool)
(declare-fun A12 () Bool)
(declare-fun A13 () Bool)
(declare-fun A14 () Bool)
(declare-fun A15 () Bool)
(declare-fun A16 () Bool)
(declare-fun A17 () Bool)
(declare-fun A18 () Bool)
(declare-fun A19 () Bool)
(declare-fun A20 () Bool)
(declare-fun A21 () Bool)
(declare-fun A22 () Bool)
(declare-fun A23 () Bool)
(declare-fun A24 () Bool)
(assert (let ((.def_0 (not A24))) (let ((.def_1 (not A14))) (let ((.def_2 (or .def_1 .def_0))) (let ((.def_3 (not A5))) (let ((.def_4 (and .def_3 A20))) (let ((.def_5 (and .def_4 .def_2))) (let ((.def_6 (not .def_5))) (let ((.def_7 (= A12 A16))) (let ((.def_8 (not A17))) (let ((.def_9 (= A14 .def_8))) (let ((.def_10 (and .def_9 .def_7))) (let ((.def_11 (not .def_10))) (let ((.def_12 (or .def_11 .def_6))) (let ((.def_13 (not .def_12))) (let ((.def_14 (or A12 A19))) (let ((.def_15 (not .def_14))) (let ((.def_16 (= A1 A16))) (let ((.def_17 (and .def_16 .def_15))) (let ((.def_18 (not .def_17))) (let ((.def_19 (or A16 A24))) (let ((.def_20 (not .def_19))) (let ((.def_21 (not A21))) (let ((.def_22 (and .def_21 A6))) (let ((.def_23 (not .def_22))) (let ((.def_24 (or .def_23 .def_20))) (let ((.def_25 (not .def_24))) (let ((.def_26 (and .def_25 .def_18))) (let ((.def_27 (not .def_26))) (let ((.def_28 (or .def_27 .def_13))) (let ((.def_29 (not .def_28))) (let ((.def_30 (or A5 A22))) (let ((.def_31 (not .def_30))) (let ((.def_32 (not A9))) (let ((.def_33 (= .def_32 A4))) (let ((.def_34 (not .def_33))) (let ((.def_35 (and .def_34 .def_31))) (let ((.def_36 (not .def_35))) (let ((.def_37 (not A19))) (let ((.def_38 (= A9 .def_37))) (let ((.def_39 (or A21 A16))) (let ((.def_40 (or .def_39 .def_38))) (let ((.def_41 (not .def_40))) (let ((.def_42 (and .def_41 .def_36))) (let ((.def_43 (not A1))) (let ((.def_44 (and .def_32 .def_43))) (let ((.def_45 (not .def_44))) (let ((.def_46 (not A0))) (let ((.def_47 (and .def_46 A14))) (let ((.def_48 (not .def_47))) (let ((.def_49 (= .def_48 .def_45))) (let ((.def_50 (not A3))) (let ((.def_51 (not A13))) (let ((.def_52 (or .def_51 .def_50))) (let ((.def_53 (not A18))) (let ((.def_54 (or A17 .def_53))) (let ((.def_55 (not .def_54))) (let ((.def_56 (and .def_55 .def_52))) (let ((.def_57 (not .def_56))) (let ((.def_58 (or .def_57 .def_49))) (let ((.def_59 (and .def_58 .def_42))) (let ((.def_60 (and .def_59 .def_29))) (let ((.def_61 (or A1 A8))) (let ((.def_62 (not .def_61))) (let ((.def_63 (and A0 .def_8))) (let ((.def_64 (not .def_63))) (let ((.def_65 (and .def_64 .def_62))) (let ((.def_66 (not .def_65))) (let ((.def_67 (not A15))) (let ((.def_68 (or .def_0 .def_67))) (let ((.def_69 (not .def_68))) (let ((.def_70 (not A12))) (let ((.def_71 (not A2))) (let ((.def_72 (and .def_71 .def_70))) (let ((.def_73 (or .def_72 .def_69))) (let ((.def_74 (not .def_73))) (let ((.def_75 (and .def_74 .def_66))) (let ((.def_76 (not .def_75))) (let ((.def_77 (and A0 .def_70))) (let ((.def_78 (not .def_77))) (let ((.def_79 (and A6 A8))) (let ((.def_80 (not .def_79))) (let ((.def_81 (or .def_80 .def_78))) (let ((.def_82 (not .def_81))) (let ((.def_83 (or .def_71 .def_8))) (let ((.def_84 (not A20))) (let ((.def_85 (not A11))) (let ((.def_86 (and .def_85 .def_84))) (let ((.def_87 (and .def_86 .def_83))) (let ((.def_88 (or .def_87 .def_82))) (let ((.def_89 (not .def_88))) (let ((.def_90 (and .def_89 .def_76))) (let ((.def_91 (not A22))) (let ((.def_92 (or A11 .def_91))) (let ((.def_93 (not .def_92))) (let ((.def_94 (or A3 .def_71))) (let ((.def_95 (and .def_94 .def_93))) (let ((.def_96 (or A10 .def_43))) (let ((.def_97 (or A14 A3))) (let ((.def_98 (not .def_97))) (let ((.def_99 (and .def_98 .def_96))) (let ((.def_100 (and .def_99 .def_95))) (let ((.def_101 (not .def_100))) (let ((.def_102 (not A6))) (let ((.def_103 (or .def_102 .def_70))) (let ((.def_104 (or .def_0 A10))) (let ((.def_105 (or .def_104 .def_103))) (let ((.def_106 (not .def_105))) (let ((.def_107 (or .def_71 .def_50))) (let ((.def_108 (not .def_107))) (let ((.def_109 (and .def_51 .def_0))) (let ((.def_110 (or .def_109 .def_108))) (let ((.def_111 (or .def_110 .def_106))) (let ((.def_112 (not .def_111))) (let ((.def_113 (and .def_112 .def_101))) (let ((.def_114 (and .def_113 .def_90))) (let ((.def_115 (not .def_114))) (let ((.def_116 (= .def_115 .def_60))) (let ((.def_117 (or A12 A5))) (let ((.def_118 (not .def_117))) (let ((.def_119 (or A17 .def_85))) (let ((.def_120 (or .def_119 .def_118))) (let ((.def_121 (not .def_120))) (let ((.def_122 (and .def_37 A22))) (let ((.def_123 (and .def_0 .def_50))) (let ((.def_124 (not .def_123))) (let ((.def_125 (or .def_124 .def_122))) (let ((.def_126 (not .def_125))) (let ((.def_127 (and .def_126 .def_121))) (let ((.def_128 (or .def_85 A6))) (let ((.def_129 (or .def_32 .def_102))) (let ((.def_130 (not .def_129))) (let ((.def_131 (or .def_130 .def_128))) (let ((.def_132 (or A14 .def_70))) (let ((.def_133 (not .def_132))) (let ((.def_134 (and A8 .def_50))) (let ((.def_135 (and .def_134 .def_133))) (let ((.def_136 (not .def_135))) (let ((.def_137 (and .def_136 .def_131))) (let ((.def_138 (and .def_137 .def_127))) (let ((.def_139 (not .def_138))) (let ((.def_140 (and .def_53 A21))) (let ((.def_141 (or .def_67 A10))) (let ((.def_142 (not .def_141))) (let ((.def_143 (or .def_142 .def_140))) (let ((.def_144 (not .def_143))) (let ((.def_145 (or A8 A18))) (let ((.def_146 (= .def_46 .def_67))) (let ((.def_147 (not .def_146))) (let ((.def_148 (or .def_147 .def_145))) (let ((.def_149 (not .def_148))) (let ((.def_150 (= .def_149 .def_144))) (let ((.def_151 (and .def_67 A10))) (let ((.def_152 (not .def_151))) (let ((.def_153 (or .def_85 A20))) (let ((.def_154 (or .def_153 .def_152))) (let ((.def_155 (and .def_85 .def_46))) (let ((.def_156 (= A7 A12))) (let ((.def_157 (not .def_156))) (let ((.def_158 (and .def_157 .def_155))) (let ((.def_159 (not .def_158))) (let ((.def_160 (or .def_159 .def_154))) (let ((.def_161 (or .def_160 .def_150))) (let ((.def_162 (or .def_161 .def_139))) (let ((.def_163 (not .def_162))) (let ((.def_164 (= A12 A23))) (let ((.def_165 (not .def_164))) (let ((.def_166 (not A4))) (let ((.def_167 (and .def_50 .def_166))) (let ((.def_168 (not .def_167))) (let ((.def_169 (= .def_168 .def_165))) (let ((.def_170 (not A7))) (let ((.def_171 (and .def_170 A5))) (let ((.def_172 (and .def_71 A6))) (let ((.def_173 (and .def_172 .def_171))) (let ((.def_174 (or .def_173 .def_169))) (let ((.def_175 (and A9 A1))) (let ((.def_176 (and A5 .def_166))) (let ((.def_177 (and .def_176 .def_175))) (let ((.def_178 (not .def_177))) (let ((.def_179 (= .def_32 A14))) (let ((.def_180 (or A16 .def_67))) (let ((.def_181 (not .def_180))) (let ((.def_182 (or .def_181 .def_179))) (let ((.def_183 (and .def_182 .def_178))) (let ((.def_184 (= .def_183 .def_174))) (let ((.def_185 (not .def_184))) (let ((.def_186 (and A4 A5))) (let ((.def_187 (not .def_186))) (let ((.def_188 (and A3 .def_85))) (let ((.def_189 (not .def_188))) (let ((.def_190 (= .def_189 .def_187))) (let ((.def_191 (not .def_190))) (let ((.def_192 (not A8))) (let ((.def_193 (and .def_192 .def_166))) (let ((.def_194 (not .def_193))) (let ((.def_195 (and .def_170 .def_32))) (let ((.def_196 (not .def_195))) (let ((.def_197 (or .def_196 .def_194))) (let ((.def_198 (not .def_197))) (let ((.def_199 (and .def_198 .def_191))) (let ((.def_200 (not A10))) (let ((.def_201 (and A20 .def_200))) (let ((.def_202 (not .def_201))) (let ((.def_203 (and A18 A16))) (let ((.def_204 (not .def_203))) (let ((.def_205 (and .def_204 .def_202))) (let ((.def_206 (and .def_32 .def_46))) (let ((.def_207 (and .def_8 .def_0))) (let ((.def_208 (and .def_207 .def_206))) (let ((.def_209 (not .def_208))) (let ((.def_210 (and .def_209 .def_205))) (let ((.def_211 (not .def_210))) (let ((.def_212 (or .def_211 .def_199))) (let ((.def_213 (not .def_212))) (let ((.def_214 (and .def_213 .def_185))) (let ((.def_215 (not .def_214))) (let ((.def_216 (or .def_215 .def_163))) (let ((.def_217 (or .def_216 .def_116))) (let ((.def_218 (not .def_217))) (let ((.def_219 (and A2 A2))) (let ((.def_220 (= .def_102 .def_84))) (let ((.def_221 (and .def_220 .def_219))) (let ((.def_222 (or .def_0 .def_3))) (let ((.def_223 (and .def_53 .def_192))) (let ((.def_224 (or .def_223 .def_222))) (let ((.def_225 (and .def_224 .def_221))) (let ((.def_226 (not .def_225))) (let ((.def_227 (or A11 .def_8))) (let ((.def_228 (not .def_227))) (let ((.def_229 (or .def_192 .def_32))) (let ((.def_230 (not .def_229))) (let ((.def_231 (or .def_230 .def_228))) (let ((.def_232 (or .def_0 A3))) (let ((.def_233 (not .def_232))) (let ((.def_234 (or A8 A22))) (let ((.def_235 (and .def_234 .def_233))) (let ((.def_236 (not .def_235))) (let ((.def_237 (or .def_236 .def_231))) (let ((.def_238 (or .def_237 .def_226))) (let ((.def_239 (not .def_238))) (let ((.def_240 (or A13 A7))) (let ((.def_241 (not .def_240))) (let ((.def_242 (and .def_50 .def_67))) (let ((.def_243 (not .def_242))) (let ((.def_244 (and .def_243 .def_241))) (let ((.def_245 (not .def_244))) (let ((.def_246 (and A5 .def_85))) (let ((.def_247 (or .def_200 A4))) (let ((.def_248 (not .def_247))) (let ((.def_249 (and .def_248 .def_246))) (let ((.def_250 (= .def_249 .def_245))) (let ((.def_251 (and A21 .def_67))) (let ((.def_252 (not .def_251))) (let ((.def_253 (not A16))) (let ((.def_254 (and .def_253 A20))) (let ((.def_255 (not .def_254))) (let ((.def_256 (or .def_255 .def_252))) (let ((.def_257 (not .def_256))) (let ((.def_258 (and .def_200 A24))) (let ((.def_259 (not .def_258))) (let ((.def_260 (and A24 A15))) (let ((.def_261 (and .def_260 .def_259))) (let ((.def_262 (not .def_261))) (let ((.def_263 (and .def_262 .def_257))) (let ((.def_264 (= .def_263 .def_250))) (let ((.def_265 (not .def_264))) (let ((.def_266 (or .def_265 .def_239))) (let ((.def_267 (not .def_266))) (let ((.def_268 (and A22 A12))) (let ((.def_269 (not .def_268))) (let ((.def_270 (and .def_3 .def_21))) (let ((.def_271 (or .def_270 .def_269))) (let ((.def_272 (not .def_271))) (let ((.def_273 (or .def_53 .def_1))) (let ((.def_274 (not .def_273))) (let ((.def_275 (not A23))) (let ((.def_276 (and .def_275 .def_85))) (let ((.def_277 (not .def_276))) (let ((.def_278 (and .def_277 .def_274))) (let ((.def_279 (and .def_278 .def_272))) (let ((.def_280 (not .def_279))) (let ((.def_281 (and .def_43 .def_32))) (let ((.def_282 (and A20 .def_85))) (let ((.def_283 (not .def_282))) (let ((.def_284 (or .def_283 .def_281))) (let ((.def_285 (and .def_3 .def_170))) (let ((.def_286 (= A7 A4))) (let ((.def_287 (or .def_286 .def_285))) (let ((.def_288 (or .def_287 .def_284))) (let ((.def_289 (not .def_288))) (let ((.def_290 (and .def_289 .def_280))) (let ((.def_291 (and A17 A23))) (let ((.def_292 (or .def_21 A1))) (let ((.def_293 (or .def_292 .def_291))) (let ((.def_294 (not .def_293))) (let ((.def_295 (and A5 .def_53))) (let ((.def_296 (or .def_295 .def_80))) (let ((.def_297 (and .def_296 .def_294))) (let ((.def_298 (= A0 A0))) (let ((.def_299 (not .def_298))) (let ((.def_300 (and A19 .def_51))) (let ((.def_301 (not .def_300))) (let ((.def_302 (or .def_301 .def_299))) (let ((.def_303 (and .def_0 .def_70))) (let ((.def_304 (and .def_200 A0))) (let ((.def_305 (not .def_304))) (let ((.def_306 (and .def_305 .def_303))) (let ((.def_307 (= .def_306 .def_302))) (let ((.def_308 (not .def_307))) (let ((.def_309 (and .def_308 .def_297))) (let ((.def_310 (or .def_309 .def_290))) (let ((.def_311 (or .def_310 .def_267))) (let ((.def_312 (not .def_311))) (let ((.def_313 (= .def_46 A4))) (let ((.def_314 (or .def_253 .def_192))) (let ((.def_315 (not .def_314))) (let ((.def_316 (= .def_315 .def_313))) (let ((.def_317 (not .def_316))) (let ((.def_318 (or .def_51 .def_91))) (let ((.def_319 (and .def_53 A5))) (let ((.def_320 (and .def_319 .def_318))) (let ((.def_321 (not .def_320))) (let ((.def_322 (or .def_321 .def_317))) (let ((.def_323 (not .def_322))) (let ((.def_324 (or A7 A8))) (let ((.def_325 (and .def_70 A13))) (let ((.def_326 (or .def_325 .def_324))) (let ((.def_327 (and A20 A8))) (let ((.def_328 (not .def_327))) (let ((.def_329 (or A16 .def_192))) (let ((.def_330 (not .def_329))) (let ((.def_331 (or .def_330 .def_328))) (let ((.def_332 (not .def_331))) (let ((.def_333 (= .def_332 .def_326))) (let ((.def_334 (or .def_333 .def_323))) (let ((.def_335 (not .def_334))) (let ((.def_336 (= A17 .def_71))) (let ((.def_337 (and .def_46 .def_102))) (let ((.def_338 (not .def_337))) (let ((.def_339 (or .def_338 .def_336))) (let ((.def_340 (or .def_84 A14))) (let ((.def_341 (or .def_102 A24))) (let ((.def_342 (or .def_341 .def_340))) (let ((.def_343 (not .def_342))) (let ((.def_344 (and .def_343 .def_339))) (let ((.def_345 (not .def_344))) (let ((.def_346 (or .def_8 .def_192))) (let ((.def_347 (not .def_346))) (let ((.def_348 (= A10 .def_32))) (let ((.def_349 (not .def_348))) (let ((.def_350 (and .def_349 .def_347))) (let ((.def_351 (not .def_350))) (let ((.def_352 (or A21 A15))) (let ((.def_353 (not .def_352))) (let ((.def_354 (and A22 A0))) (let ((.def_355 (and .def_354 .def_353))) (let ((.def_356 (and .def_355 .def_351))) (let ((.def_357 (or .def_356 .def_345))) (let ((.def_358 (not .def_357))) (let ((.def_359 (and .def_358 .def_335))) (let ((.def_360 (and A21 .def_51))) (let ((.def_361 (not .def_360))) (let ((.def_362 (or A14 .def_50))) (let ((.def_363 (not .def_362))) (let ((.def_364 (or .def_363 .def_361))) (let ((.def_365 (= .def_200 A17))) (let ((.def_366 (and A1 A5))) (let ((.def_367 (and .def_366 .def_365))) (let ((.def_368 (not .def_367))) (let ((.def_369 (and .def_368 .def_364))) (let ((.def_370 (not .def_369))) (let ((.def_371 (or .def_46 .def_253))) (let ((.def_372 (not .def_371))) (let ((.def_373 (and A14 .def_102))) (let ((.def_374 (not .def_373))) (let ((.def_375 (and .def_374 .def_372))) (let ((.def_376 (or A20 .def_85))) (let ((.def_377 (and A15 A20))) (let ((.def_378 (not .def_377))) (let ((.def_379 (or .def_378 .def_376))) (let ((.def_380 (or .def_379 .def_375))) (let ((.def_381 (and .def_380 .def_370))) (let ((.def_382 (not .def_381))) (let ((.def_383 (and A13 A10))) (let ((.def_384 (or A11 A6))) (let ((.def_385 (or .def_384 .def_383))) (let ((.def_386 (and A5 .def_84))) (let ((.def_387 (not .def_386))) (let ((.def_388 (and A18 A10))) (let ((.def_389 (not .def_388))) (let ((.def_390 (and .def_389 .def_387))) (let ((.def_391 (not .def_390))) (let ((.def_392 (or .def_391 .def_385))) (let ((.def_393 (not .def_392))) (let ((.def_394 (= .def_253 .def_102))) (let ((.def_395 (not .def_394))) (let ((.def_396 (or A9 .def_253))) (let ((.def_397 (or .def_396 .def_395))) (let ((.def_398 (and A17 A14))) (let ((.def_399 (not .def_398))) (let ((.def_400 (or .def_102 A11))) (let ((.def_401 (and .def_400 .def_399))) (let ((.def_402 (not .def_401))) (let ((.def_403 (and .def_402 .def_397))) (let ((.def_404 (or .def_403 .def_393))) (let ((.def_405 (not .def_404))) (let ((.def_406 (or .def_405 .def_382))) (let ((.def_407 (not .def_406))) (let ((.def_408 (or .def_407 .def_359))) (let ((.def_409 (not .def_408))) (let ((.def_410 (or .def_409 .def_312))) (let ((.def_411 (not .def_410))) (let ((.def_412 (= .def_411 .def_218))) (let ((.def_413 (not .def_412))) .def_413)))))))))))))))))))))))))))))))))))))))))))))))))))))))))))))))))))))))))))))))))))))))))))))))))))))))))))))))))))))))))))))))))))))))))))))))))))))))))))))))))))))))))))))))))))))))))))))))))))))))))))))))))))))))))))))))))))))))))))))))))))))))))))))))))))))))))))))))))))))))))))))))))))))))))))))))))))))))))))))))))))))))))))))))))))))))))))))))))))))))))))))))))))))))))))))))))))))))))))))))))))))))))))))))
(check-sat)
